\ Model Model_copy
\ LP format - for model browsing. Use MPS format to capture full model detail.
Minimize
 
Subject To
 FlowBalanceSource: - p_3_1 = 0
 FlowBalanceSource: - p_3_2 = 0
 FlowBalanceSource: - p_3_3 = 0
 FlowBalanceSource: - p_3_4 = 0
 FlowBalanceSource: - p_3_5 = 0
 DataGeneratedSource[3]: p_3_1 + p_3_2 + p_3_3 + p_3_4 + p_3_5 = 1440
Bounds
 p_3_1 free
 p_3_2 free
 p_3_3 free
 p_3_4 free
 p_3_5 free
Generals
 p_3_1 p_3_2 p_3_3 p_3_4 p_3_5
End
